<?xml version = "1.0" standalone="yes"?>
<!-- This file has been generated by DOcplex version 2.23.222  -->
<CPLEXSolution version="1.0">
 <header
   problemName="CVRP"
   objectiveValue="10712.2"
  />
 <variables>
  <variable name="x_0_1" index="0" value="1.00000"/>
  <variable name="x_0_3" index="2" value="1.00000"/>
  <variable name="x_0_4" index="3" value="1.00000"/>
  <variable name="x_0_5" index="4" value="1.00000"/>
  <variable name="x_0_6" index="5" value="1.00000"/>
  <variable name="x_0_7" index="6" value="1.00000"/>
  <variable name="x_0_10" index="9" value="1.00000"/>
  <variable name="x_0_11" index="10" value="1.00000"/>
  <variable name="x_0_16" index="15" value="1.00000"/>
  <variable name="x_0_17" index="16" value="1.00000"/>
  <variable name="x_0_18" index="17" value="1.00000"/>
  <variable name="x_0_19" index="18" value="1.00000"/>
  <variable name="x_0_20" index="19" value="1.00000"/>
  <variable name="x_1_0" index="21" value="1.00000"/>
  <variable name="x_2_13" index="54" value="1.00000"/>
  <variable name="x_3_8" index="70" value="1.00000"/>
  <variable name="x_4_0" index="84" value="1.00000"/>
  <variable name="x_5_9" index="113" value="1.00000"/>
  <variable name="x_6_15" index="140" value="1.00000"/>
  <variable name="x_7_0" index="147" value="1.00000"/>
  <variable name="x_8_0" index="168" value="1.00000"/>
  <variable name="x_9_0" index="189" value="1.00000"/>
  <variable name="x_10_0" index="210" value="1.00000"/>
  <variable name="x_11_21" index="251" value="1.00000"/>
  <variable name="x_12_0" index="252" value="1.00000"/>
  <variable name="x_13_0" index="273" value="1.00000"/>
  <variable name="x_14_0" index="294" value="1.00000"/>
  <variable name="x_15_0" index="315" value="1.00000"/>
  <variable name="x_16_14" index="350" value="1.00000"/>
  <variable name="x_17_12" index="369" value="1.00000"/>
  <variable name="x_18_2" index="380" value="1.00000"/>
  <variable name="x_19_0" index="399" value="1.00000"/>
  <variable name="x_20_0" index="420" value="1.00000"/>
  <variable name="x_21_0" index="441" value="1.00000"/>
  <variable name="u_1" index="462" value="33.00000"/>
  <variable name="u_2" index="463" value="26.00000"/>
  <variable name="u_3" index="464" value="19.00000"/>
  <variable name="u_4" index="465" value="41.00000"/>
  <variable name="u_5" index="466" value="5.00000"/>
  <variable name="u_6" index="467" value="32.00000"/>
  <variable name="u_7" index="468" value="31.00000"/>
  <variable name="u_8" index="469" value="36.00000"/>
  <variable name="u_9" index="470" value="38.00000"/>
  <variable name="u_10" index="471" value="23.00000"/>
  <variable name="u_11" index="472" value="12.00000"/>
  <variable name="u_12" index="473" value="41.00000"/>
  <variable name="u_13" index="474" value="40.00000"/>
  <variable name="u_14" index="475" value="34.00000"/>
  <variable name="u_15" index="476" value="39.00000"/>
  <variable name="u_16" index="477" value="4.00000"/>
  <variable name="u_17" index="478" value="32.00000"/>
  <variable name="u_18" index="479" value="12.00000"/>
  <variable name="u_19" index="480" value="40.00000"/>
  <variable name="u_20" index="481" value="41.00000"/>
  <variable name="u_21" index="482" value="25.00000"/>
 </variables>
</CPLEXSolution>
